SDVRP instances/custom_instances/p02_6_splitx10_0.vrp
NAME:p02_6_splitx10_
BEST_KNOWN: 0
COMMENT: 0
DIMENSION: 321
CAPACITY: 1400
EDGE_WEIGHT_FORMAT: FUNCTION
EDGE_WEIGHT_TYPE: EXACT_2D
NODE_COORD_SECTION
1 0.00000 0.00000
2 40 49
3 40 49
4 40 49
5 40 49
6 40 49
7 40 49
8 -35 15
9 -35 15
10 -35 15
11 -35 15
12 -19 42
13 -19 42
14 -19 42
15 -19 42
16 -19 42
17 32 -26
18 32 -26
19 32 -26
20 32 -26
21 32 -26
22 32 -26
23 32 -26
24 32 -26
25 -27 6
26 -27 6
27 -27 6
28 -27 6
29 -27 6
30 -33 8
31 -33 8
32 -33 8
33 -33 8
34 44 39
35 44 39
36 44 39
37 50 -8
38 50 -8
39 50 -8
40 50 -8
41 50 -8
42 -49 43
43 -49 43
44 -49 43
45 -49 43
46 -49 43
47 -49 43
48 -49 43
49 -10 12
50 7 -7
51 7 -7
52 7 -7
53 -35 -15
54 -35 -15
55 -35 -15
56 -35 -15
57 -35 -15
58 -28 -9
59 -28 -9
60 -28 -9
61 27 -17
62 27 -17
63 27 -17
64 0 -35
65 0 -35
66 0 -35
67 1 46
68 1 46
69 1 46
70 1 46
71 1 46
72 1 46
73 8 -45
74 8 -45
75 8 -45
76 8 -45
77 8 -45
78 -27 36
79 -27 36
80 -34 12
81 -34 12
82 -34 12
83 -34 12
84 -34 12
85 -34 12
86 -47 9
87 -47 9
88 -47 9
89 -47 9
90 -47 9
91 -3 -35
92 -3 -35
93 -3 -35
94 -37 42
95 -37 42
96 -37 42
97 -37 42
98 -37 42
99 21 -49
100 21 -49
101 21 -49
102 21 -49
103 21 -49
104 21 -49
105 9 25
106 9 25
107 9 25
108 9 25
109 9 25
110 26 -21
111 26 -21
112 26 -21
113 26 -21
114 13 14
115 13 14
116 13 14
117 13 14
118 13 14
119 13 14
120 11 32
121 11 32
122 11 32
123 11 32
124 11 32
125 11 32
126 11 32
127 29 22
128 29 22
129 29 22
130 29 22
131 -29 33
132 -29 33
133 32 27
134 32 27
135 34 -8
136 34 -8
137 34 -8
138 34 -8
139 34 -8
140 34 -8
141 34 -8
142 41 -31
143 41 -31
144 41 -31
145 -48 17
146 -48 17
147 -48 17
148 -48 17
149 17 -45
150 17 -45
151 17 -45
152 -4 -38
153 -4 -38
154 -4 -38
155 15 -48
156 15 -48
157 15 -48
158 15 -48
159 15 -48
160 15 -48
161 39 21
162 39 21
163 39 21
164 39 21
165 -16 8
166 -16 8
167 -46 8
168 -46 8
169 -46 8
170 -46 8
171 -46 8
172 -46 8
173 -46 8
174 11 -49
175 11 -49
176 11 -49
177 11 -49
178 11 -49
179 -23 21
180 -23 21
181 -23 21
182 -23 21
183 -23 21
184 -23 21
185 -23 21
186 11 5
187 11 5
188 11 5
189 -45 20
190 -45 20
191 19 -39
192 19 -39
193 19 -39
194 19 -39
195 19 -39
196 19 -39
197 19 -39
198 44 25
199 44 25
200 44 25
201 17 -29
202 31 -50
203 31 -50
204 31 -50
205 31 -50
206 31 -50
207 -18 -46
208 -18 -46
209 -18 -46
210 -18 -46
211 -26 2
212 -26 2
213 -26 2
214 -26 2
215 -46 38
216 -46 38
217 -46 38
218 -46 38
219 -35 42
220 -35 42
221 -35 42
222 -35 42
223 25 34
224 25 34
225 25 34
226 25 34
227 25 34
228 -9 -19
229 -9 -19
230 -9 -19
231 -9 -19
232 -9 -19
233 42 29
234 42 29
235 42 29
236 42 29
237 42 29
238 42 29
239 -40 -28
240 -40 -28
241 41 44
242 41 44
243 41 44
244 41 44
245 15 45
246 15 45
247 15 45
248 15 45
249 46 -28
250 46 -28
251 46 -28
252 30 -3
253 30 -3
254 30 -3
255 -43 -13
256 -43 -13
257 -43 -13
258 -9 -32
259 -9 -32
260 -9 -32
261 -9 -32
262 -9 -32
263 -9 -32
264 -45 4
265 -45 4
266 -45 4
267 -6 32
268 -6 32
269 -6 32
270 -6 32
271 -6 32
272 -30 -49
273 -30 -49
274 -30 -49
275 -30 -49
276 -23 1
277 -23 1
278 -23 1
279 -23 1
280 -23 1
281 37 16
282 37 16
283 37 16
284 18 -26
285 18 -26
286 18 -26
287 -23 -34
288 -23 -34
289 -23 -34
290 -9 -33
291 -9 -33
292 -9 -33
293 -9 -33
294 -9 -33
295 -23 -11
296 -23 -11
297 -23 -11
298 -23 -11
299 -23 -11
300 -23 -11
301 1 -27
302 1 -27
303 1 -27
304 1 -27
305 -47 6
306 -47 6
307 -47 6
308 -47 6
309 -47 6
310 -47 6
311 13 -14
312 13 -14
313 39 5
314 39 5
315 39 5
316 39 5
317 -48 3
318 -48 3
319 -48 3
320 -48 3
321 -48 3
DEMAND_SECTION
1 0
2 280
3 140
4 70
5 14
6 14
7 12
8 140
9 70
10 14
11 6
12 280
13 140
14 70
15 14
16 6
17 280
18 140
19 70
20 14
21 14
22 14
23 14
24 4
25 140
26 14
27 14
28 14
29 8
30 140
31 14
32 14
33 12
34 280
35 70
36 10
37 280
38 140
39 70
40 14
41 6
42 280
43 140
44 70
45 14
46 14
47 14
48 8
49 280
50 280
51 280
52 10
53 280
54 280
55 14
56 14
57 12
58 280
59 280
60 70
61 280
62 70
63 10
64 280
65 14
66 6
67 280
68 140
69 70
70 14
71 14
72 2
73 280
74 140
75 14
76 14
77 2
78 140
79 70
80 280
81 140
82 70
83 14
84 14
85 12
86 280
87 280
88 14
89 14
90 12
91 280
92 70
93 10
94 280
95 280
96 14
97 14
98 2
99 140
100 14
101 14
102 14
103 14
104 4
105 280
106 140
107 70
108 14
109 6
110 280
111 14
112 14
113 12
114 280
115 70
116 14
117 14
118 14
119 8
120 280
121 140
122 70
123 14
124 14
125 14
126 8
127 280
128 280
129 14
130 6
131 280
132 70
133 280
134 280
135 280
136 280
137 70
138 14
139 14
140 14
141 8
142 280
143 280
144 140
145 280
146 14
147 14
148 2
149 140
150 70
151 10
152 280
153 280
154 140
155 280
156 70
157 14
158 14
159 14
160 8
161 280
162 140
163 14
164 6
165 280
166 140
167 280
168 280
169 70
170 14
171 14
172 14
173 8
174 140
175 70
176 14
177 14
178 2
179 280
180 140
181 14
182 14
183 14
184 14
185 4
186 280
187 140
188 70
189 280
190 280
191 280
192 280
193 14
194 14
195 14
196 14
197 4
198 280
199 14
200 6
201 280
202 280
203 280
204 14
205 14
206 2
207 140
208 14
209 14
210 2
211 280
212 280
213 70
214 10
215 140
216 70
217 14
218 6
219 280
220 70
221 14
222 6
223 280
224 280
225 14
226 14
227 2
228 280
229 140
230 70
231 14
232 6
233 280
234 280
235 14
236 14
237 14
238 8
239 280
240 280
241 280
242 14
243 14
244 12
245 280
246 280
247 14
248 6
249 280
250 70
251 10
252 280
253 140
254 10
255 280
256 280
257 10
258 140
259 70
260 14
261 14
262 14
263 8
264 280
265 70
266 10
267 280
268 140
269 70
270 14
271 6
272 140
273 70
274 14
275 6
276 280
277 280
278 14
279 14
280 12
281 280
282 14
283 6
284 280
285 14
286 6
287 280
288 140
289 10
290 280
291 280
292 14
293 14
294 12
295 280
296 280
297 70
298 14
299 14
300 12
301 280
302 140
303 14
304 6
305 140
306 70
307 14
308 14
309 14
310 8
311 280
312 280
313 280
314 14
315 14
316 2
317 280
318 70
319 14
320 14
321 2
DEPOT_SECTION
1
-1
EOF