SDVRP instances/custom_instances/p02_6_splitx10_0.sol
320 -9 10 8 7 189 188 144 145 147 146 80 81 82 84 83 -12 13 14 11 15 220 221 219 218 96 94 97 95 77 78 -26 24 212 213 211 210 279 276 278 275 277 -28 25 27 168 167 305 307 306 309 308 304 316 320 319 317 318 265 263 264 -32 29 30 31 169 171 170 166 172 85 87 89 86 88 79 -48 182 181 178 183 179 184 180 164 165 -49 51 50 311 310 -56 52 55 54 53 255 256 254 -59 58 57 294 299 295 297 296 298 -62 60 61 283 284 285 200 300 302 303 301 -64 65 63 153 152 151 92 90 91 -67 68 70 66 69 71 245 246 244 247 124 120 121 122 123 -76 74 75 72 73 174 173 177 176 175 155 158 154 157 156 159 150 149 148 192 -106 107 108 104 105 125 119 266 267 269 270 268 -109 18 21 20 23 22 16 142 143 141 -110 112 111 17 19 248 249 250 40 38 39 36 37 313 315 312 314 -113 222 223 132 133 -116 114 115 118 117 34 35 33 241 242 243 240 2 4 6 3 5 1 224 226 225 -128 129 126 127 282 281 280 187 185 186 -131 130 93 47 46 45 42 44 43 41 214 216 217 215 -134 138 137 136 140 135 139 252 253 251 -160 162 161 163 197 199 198 232 233 234 236 237 235 -191 195 194 193 196 190 100 99 101 103 102 98 205 201 202 204 203 -229 227 231 228 230 259 257 261 260 258 262 291 293 289 290 292 -238 239 274 272 271 273 209 206 208 207 286 287 288 0 





OBJ=
2394.158
BEST_KNOWN=
0.000